c This file is generated by v2cnfMtr
c Generated on Sat Feb 20 19:46:41 2016
p cnf 564 1539
1 56 0
-1 -56 0
2 57 0
-2 -57 0
4 58 0
-4 -58 0
6 59 0
-6 -59 0
8 60 0
-8 -60 0
10 61 0
-10 -61 0
12 62 0
-12 -62 0
14 63 0
-14 -63 0
16 64 0
-16 -64 0
18 65 0
-18 -65 0
20 66 0
-20 -66 0
22 67 0
-22 -67 0
24 68 0
-24 -68 0
26 69 0
-26 -69 0
28 70 0
-28 -70 0
30 71 0
-30 -71 0
32 72 0
-32 -72 0
34 73 0
-34 -73 0
-56 -2 -74 0
56 74 0
2 74 0
3 57 75 0
-3 -75 0
-57 -75 0
5 57 76 0
-5 -76 0
-57 -76 0
-58 -6 -77 0
58 77 0
6 77 0
-60 -10 -78 0
60 78 0
10 78 0
-62 -14 -79 0
62 79 0
14 79 0
-64 -18 -80 0
64 80 0
18 80 0
-66 -22 -81 0
66 81 0
22 81 0
-68 -26 -82 0
68 82 0
26 82 0
-70 -30 -83 0
70 83 0
30 83 0
-72 -34 -84 0
72 84 0
34 84 0
7 59 85 0
-7 -85 0
-59 -85 0
9 59 86 0
-9 -86 0
-59 -86 0
11 61 87 0
-11 -87 0
-61 -87 0
13 61 88 0
-13 -88 0
-61 -88 0
15 63 89 0
-15 -89 0
-63 -89 0
17 63 90 0
-17 -90 0
-63 -90 0
19 65 91 0
-19 -91 0
-65 -91 0
21 65 92 0
-21 -92 0
-65 -92 0
23 67 93 0
-23 -93 0
-67 -93 0
25 67 94 0
-25 -94 0
-67 -94 0
27 69 95 0
-27 -95 0
-69 -95 0
29 69 96 0
-29 -96 0
-69 -96 0
31 71 97 0
-31 -97 0
-71 -97 0
33 71 98 0
-33 -98 0
-71 -98 0
35 73 99 0
-35 -99 0
-73 -99 0
36 73 100 0
-36 -100 0
-73 -100 0
-74 -77 -78 -79 -80 -81 -82 -83 -84 101 0
74 -101 0
77 -101 0
78 -101 0
79 -101 0
80 -101 0
81 -101 0
82 -101 0
83 -101 0
84 -101 0
101 102 0
-101 -102 0
101 103 0
-101 -103 0
101 49 0
-101 -49 0
-102 -74 -104 0
102 74 -104 0
102 -74 104 0
-102 74 104 0
-102 -77 -105 0
102 77 -105 0
102 -77 105 0
-102 77 105 0
-102 -78 -106 0
102 78 -106 0
102 -78 106 0
-102 78 106 0
-102 -79 -107 0
102 79 -107 0
102 -79 107 0
-102 79 107 0
-102 -80 -108 0
102 80 -108 0
102 -80 108 0
-102 80 108 0
-102 -81 -109 0
102 81 -109 0
102 -81 109 0
-102 81 109 0
-1 -103 -110 0
1 110 0
103 110 0
-102 -82 -111 0
102 82 -111 0
102 -82 111 0
-102 82 111 0
-103 -4 -112 0
103 112 0
4 112 0
-102 -83 -113 0
102 83 -113 0
102 -83 113 0
-102 83 113 0
-103 -8 -114 0
103 114 0
8 114 0
-102 -84 -115 0
102 84 -115 0
102 -84 115 0
-102 84 115 0
-103 -12 -116 0
103 116 0
12 116 0
-103 -16 -117 0
103 117 0
16 117 0
-103 -20 -118 0
103 118 0
20 118 0
-103 -24 -119 0
103 119 0
24 119 0
-103 -28 -120 0
103 120 0
28 120 0
-103 -32 -121 0
103 121 0
32 121 0
-104 -75 -122 0
104 122 0
75 122 0
-104 -76 -123 0
104 123 0
76 123 0
-105 -85 -124 0
105 124 0
85 124 0
-106 -87 -125 0
106 125 0
87 125 0
-107 -89 -126 0
107 126 0
89 126 0
-108 -91 -127 0
108 127 0
91 127 0
-109 -93 -128 0
109 128 0
93 128 0
-111 -95 -129 0
111 129 0
95 129 0
-113 -97 -130 0
113 130 0
97 130 0
-115 -99 -131 0
115 131 0
99 131 0
-105 -86 -132 0
105 132 0
86 132 0
-106 -88 -133 0
106 133 0
88 133 0
-107 -90 -134 0
107 134 0
90 134 0
-108 -92 -135 0
108 135 0
92 135 0
-109 -94 -136 0
109 136 0
94 136 0
-111 -96 -137 0
111 137 0
96 137 0
-113 -98 -138 0
113 138 0
98 138 0
-115 -100 -139 0
115 139 0
100 139 0
-122 -124 -125 -126 -127 -128 -129 -130 -131 140 0
122 -140 0
124 -140 0
125 -140 0
126 -140 0
127 -140 0
128 -140 0
129 -140 0
130 -140 0
131 -140 0
123 141 0
-123 -141 0
132 142 0
-132 -142 0
133 143 0
-133 -143 0
134 144 0
-134 -144 0
135 145 0
-135 -145 0
136 146 0
-136 -146 0
137 147 0
-137 -147 0
139 149 0
-139 -149 0
140 150 0
-140 -150 0
140 151 0
-140 -151 0
140 50 0
-140 -50 0
-150 -122 -152 0
150 122 -152 0
150 -122 152 0
-150 122 152 0
-150 -124 -153 0
150 124 -153 0
150 -124 153 0
-150 124 153 0
-150 -125 -154 0
150 125 -154 0
150 -125 154 0
-150 125 154 0
-150 -126 -155 0
150 126 -155 0
150 -126 155 0
-150 126 155 0
-3 -151 -156 0
3 156 0
151 156 0
-150 -127 -157 0
150 127 -157 0
150 -127 157 0
-150 127 157 0
-151 -7 -158 0
151 158 0
7 158 0
-150 -128 -159 0
150 128 -159 0
150 -128 159 0
-150 128 159 0
-151 -11 -160 0
151 160 0
11 160 0
-150 -129 -161 0
150 129 -161 0
150 -129 161 0
-150 129 161 0
-151 -15 -162 0
151 162 0
15 162 0
-150 -130 -163 0
150 130 -163 0
150 -130 163 0
-150 130 163 0
-151 -19 -164 0
151 164 0
19 164 0
-150 -131 -165 0
150 131 -165 0
150 -131 165 0
-150 131 165 0
-151 -23 -166 0
151 166 0
23 166 0
-151 -27 -167 0
151 167 0
27 167 0
-151 -31 -168 0
151 168 0
31 168 0
-151 -35 -169 0
151 169 0
35 169 0
-152 -141 -170 0
152 170 0
141 170 0
-153 -142 -171 0
153 171 0
142 171 0
-154 -143 -172 0
154 172 0
143 172 0
-155 -144 -173 0
155 173 0
144 173 0
-157 -145 -174 0
157 174 0
145 174 0
-159 -146 -175 0
159 175 0
146 175 0
-161 -147 -176 0
161 176 0
147 176 0
-163 -148 -177 0
163 177 0
148 177 0
-165 -149 -178 0
165 178 0
149 178 0
-170 -171 -172 -173 -174 -175 -176 -177 -178 179 0
170 -179 0
171 -179 0
172 -179 0
173 -179 0
174 -179 0
175 -179 0
176 -179 0
177 -179 0
178 -179 0
179 180 0
-179 -180 0
179 51 0
-179 -51 0
-5 -180 -181 0
5 181 0
180 181 0
-180 -9 -182 0
180 182 0
9 182 0
-180 -13 -183 0
180 183 0
13 183 0
-180 -17 -184 0
180 184 0
17 184 0
-180 -21 -185 0
180 185 0
21 185 0
-180 -25 -186 0
180 186 0
25 186 0
-180 -29 -187 0
180 187 0
29 187 0
-180 -33 -188 0
180 188 0
33 188 0
-180 -36 -189 0
180 189 0
36 189 0
-2 -110 -156 -181 -190 0
2 190 0
110 190 0
156 190 0
181 190 0
-112 -158 -182 -6 -191 0
112 191 0
158 191 0
182 191 0
6 191 0
-114 -160 -183 -10 -192 0
114 192 0
160 192 0
183 192 0
10 192 0
-116 -162 -184 -14 -193 0
116 193 0
162 193 0
184 193 0
14 193 0
-117 -164 -185 -18 -194 0
117 194 0
164 194 0
185 194 0
18 194 0
-118 -166 -186 -22 -195 0
118 195 0
166 195 0
186 195 0
22 195 0
-119 -167 -187 -26 -196 0
119 196 0
167 196 0
187 196 0
26 196 0
-120 -168 -188 -30 -197 0
120 197 0
168 197 0
188 197 0
30 197 0
-121 -169 -189 -34 -198 0
121 198 0
169 198 0
189 198 0
34 198 0
190 199 0
-190 -199 0
-191 -192 -193 -194 -195 -196 -197 -198 200 0
191 -200 0
192 -200 0
193 -200 0
194 -200 0
195 -200 0
196 -200 0
197 -200 0
198 -200 0
193 201 0
-193 -201 0
195 202 0
-195 -202 0
196 203 0
-196 -203 0
197 204 0
-197 -204 0
199 200 52 0
-199 -52 0
-200 -52 0
-192 -201 -205 0
192 205 0
201 205 0
-192 -193 -202 -194 -206 0
192 206 0
193 206 0
202 206 0
194 206 0
-194 -193 -203 -207 0
194 207 0
193 207 0
203 207 0
-192 -193 -196 -204 -208 0
192 208 0
193 208 0
196 208 0
204 208 0
-191 -192 -205 -194 -53 0
191 53 0
192 53 0
205 53 0
194 53 0
-191 -192 -206 -207 -54 0
191 54 0
192 54 0
206 54 0
207 54 0
-191 -205 -206 -208 -55 0
191 55 0
205 55 0
206 55 0
208 55 0
39 209 0
-39 -209 0
40 210 0
-40 -210 0
138 211 0
-138 -211 0
-138 -209 213 0
138 -213 0
209 -213 0
-211 -209 214 0
211 -214 0
209 -214 0
-37 -39 215 0
37 -215 0
39 -215 0
-38 -39 216 0
38 -216 0
39 -216 0
-213 -210 222 0
213 -222 0
210 -222 0
-214 -40 220 0
214 -220 0
40 -220 0
-215 -210 218 0
215 -218 0
210 -218 0
-216 -40 217 0
216 -217 0
40 -217 0
217 218 -219 0
-217 219 0
-218 219 0
219 220 -221 0
-219 221 0
-220 221 0
222 221 -212 0
-222 212 0
-221 212 0
41 223 0
-41 -223 0
42 224 0
-42 -224 0
148 225 0
-148 -225 0
-148 -223 227 0
148 -227 0
223 -227 0
-225 -223 228 0
225 -228 0
223 -228 0
-37 -41 229 0
37 -229 0
41 -229 0
-38 -41 230 0
38 -230 0
41 -230 0
-227 -224 236 0
227 -236 0
224 -236 0
-228 -42 234 0
228 -234 0
42 -234 0
-229 -224 232 0
229 -232 0
224 -232 0
-230 -42 231 0
230 -231 0
42 -231 0
231 232 -233 0
-231 233 0
-232 233 0
233 234 -235 0
-233 235 0
-234 235 0
236 235 -226 0
-236 226 0
-235 226 0
43 237 0
-43 -237 0
44 238 0
-44 -238 0
3 239 0
-3 -239 0
-3 -237 241 0
3 -241 0
237 -241 0
-239 -237 242 0
239 -242 0
237 -242 0
-37 -43 243 0
37 -243 0
43 -243 0
-38 -43 244 0
38 -244 0
43 -244 0
-241 -238 250 0
241 -250 0
238 -250 0
-242 -44 248 0
242 -248 0
44 -248 0
-243 -238 246 0
243 -246 0
238 -246 0
-244 -44 245 0
244 -245 0
44 -245 0
245 246 -247 0
-245 247 0
-246 247 0
247 248 -249 0
-247 249 0
-248 249 0
250 249 -240 0
-250 240 0
-249 240 0
45 251 0
-45 -251 0
46 252 0
-46 -252 0
2 253 0
-2 -253 0
-2 -251 255 0
2 -255 0
251 -255 0
-253 -251 256 0
253 -256 0
251 -256 0
-37 -45 257 0
37 -257 0
45 -257 0
-38 -45 258 0
38 -258 0
45 -258 0
-255 -252 264 0
255 -264 0
252 -264 0
-256 -46 262 0
256 -262 0
46 -262 0
-257 -252 260 0
257 -260 0
252 -260 0
-258 -46 259 0
258 -259 0
46 -259 0
259 260 -261 0
-259 261 0
-260 261 0
261 262 -263 0
-261 263 0
-262 263 0
264 263 -254 0
-264 254 0
-263 254 0
47 265 0
-47 -265 0
48 266 0
-48 -266 0
268 267 0
-268 -267 0
-268 -265 269 0
268 -269 0
265 -269 0
-267 -265 270 0
267 -270 0
265 -270 0
-37 -47 271 0
37 -271 0
47 -271 0
-38 -47 272 0
38 -272 0
47 -272 0
-269 -266 278 0
269 -278 0
266 -278 0
-270 -48 276 0
270 -276 0
48 -276 0
-271 -266 274 0
271 -274 0
266 -274 0
-272 -48 273 0
272 -273 0
48 -273 0
273 274 -275 0
-273 275 0
-274 275 0
275 276 -277 0
-275 277 0
-276 277 0
278 277 -1 0
-278 1 0
-277 1 0
-212 -226 -240 -254 -268 0
212 268 0
226 268 0
240 268 0
254 268 0
c The second circuit:
279 334 0
-279 -334 0
280 335 0
-280 -335 0
282 336 0
-282 -336 0
284 337 0
-284 -337 0
286 338 0
-286 -338 0
288 339 0
-288 -339 0
290 340 0
-290 -340 0
292 341 0
-292 -341 0
294 342 0
-294 -342 0
296 343 0
-296 -343 0
298 344 0
-298 -344 0
300 345 0
-300 -345 0
302 346 0
-302 -346 0
304 347 0
-304 -347 0
306 348 0
-306 -348 0
308 349 0
-308 -349 0
310 350 0
-310 -350 0
312 351 0
-312 -351 0
-334 -280 -352 0
334 352 0
280 352 0
281 335 353 0
-281 -353 0
-335 -353 0
283 335 354 0
-283 -354 0
-335 -354 0
-336 -284 -355 0
336 355 0
284 355 0
-338 -288 -356 0
338 356 0
288 356 0
-340 -292 -357 0
340 357 0
292 357 0
-342 -296 -358 0
342 358 0
296 358 0
-344 -300 -359 0
344 359 0
300 359 0
-346 -304 -360 0
346 360 0
304 360 0
-348 -308 -361 0
348 361 0
308 361 0
-350 -312 -362 0
350 362 0
312 362 0
285 337 363 0
-285 -363 0
-337 -363 0
287 337 364 0
-287 -364 0
-337 -364 0
289 339 365 0
-289 -365 0
-339 -365 0
291 339 366 0
-291 -366 0
-339 -366 0
293 341 367 0
-293 -367 0
-341 -367 0
295 341 368 0
-295 -368 0
-341 -368 0
297 343 369 0
-297 -369 0
-343 -369 0
299 343 370 0
-299 -370 0
-343 -370 0
301 345 371 0
-301 -371 0
-345 -371 0
303 345 372 0
-303 -372 0
-345 -372 0
305 347 373 0
-305 -373 0
-347 -373 0
307 347 374 0
-307 -374 0
-347 -374 0
309 349 375 0
-309 -375 0
-349 -375 0
311 349 376 0
-311 -376 0
-349 -376 0
313 351 377 0
-313 -377 0
-351 -377 0
314 351 378 0
-314 -378 0
-351 -378 0
-352 -355 -356 -357 -358 -359 -360 -361 -362 379 0
352 -379 0
355 -379 0
356 -379 0
357 -379 0
358 -379 0
359 -379 0
360 -379 0
361 -379 0
362 -379 0
379 380 0
-379 -380 0
379 381 0
-379 -381 0
379 327 0
-379 -327 0
-380 -352 -382 0
380 352 -382 0
380 -352 382 0
-380 352 382 0
-380 -355 -383 0
380 355 -383 0
380 -355 383 0
-380 355 383 0
-380 -356 -384 0
380 356 -384 0
380 -356 384 0
-380 356 384 0
-380 -357 -385 0
380 357 -385 0
380 -357 385 0
-380 357 385 0
-380 -358 -386 0
380 358 -386 0
380 -358 386 0
-380 358 386 0
-380 -359 -387 0
380 359 -387 0
380 -359 387 0
-380 359 387 0
-279 -381 -388 0
279 388 0
381 388 0
-380 -360 -389 0
380 360 -389 0
380 -360 389 0
-380 360 389 0
-381 -282 -390 0
381 390 0
282 390 0
-380 -361 -391 0
380 361 -391 0
380 -361 391 0
-380 361 391 0
-381 -286 -392 0
381 392 0
286 392 0
-380 -362 -393 0
380 362 -393 0
380 -362 393 0
-380 362 393 0
-381 -290 -394 0
381 394 0
290 394 0
-381 -294 -395 0
381 395 0
294 395 0
-381 -298 -396 0
381 396 0
298 396 0
-381 -302 -397 0
381 397 0
302 397 0
-381 -306 -398 0
381 398 0
306 398 0
-381 -310 -399 0
381 399 0
310 399 0
-382 -353 -400 0
382 400 0
353 400 0
-382 -354 -401 0
382 401 0
354 401 0
-383 -363 -402 0
383 402 0
363 402 0
-384 -365 -403 0
384 403 0
365 403 0
-385 -367 -404 0
385 404 0
367 404 0
-386 -369 -405 0
386 405 0
369 405 0
-387 -371 -406 0
387 406 0
371 406 0
-389 -373 -407 0
389 407 0
373 407 0
-391 -375 -408 0
391 408 0
375 408 0
-393 -377 -409 0
393 409 0
377 409 0
-383 -364 -410 0
383 410 0
364 410 0
-384 -366 -411 0
384 411 0
366 411 0
-385 -368 -412 0
385 412 0
368 412 0
-386 -370 -413 0
386 413 0
370 413 0
-387 -372 -414 0
387 414 0
372 414 0
-389 -374 -415 0
389 415 0
374 415 0
-391 -376 -416 0
391 416 0
376 416 0
-393 -378 -417 0
393 417 0
378 417 0
-400 -402 -403 -404 -405 -406 -407 -408 -409 418 0
400 -418 0
402 -418 0
403 -418 0
404 -418 0
405 -418 0
406 -418 0
407 -418 0
408 -418 0
409 -418 0
401 419 0
-401 -419 0
410 420 0
-410 -420 0
411 421 0
-411 -421 0
412 422 0
-412 -422 0
413 423 0
-413 -423 0
414 424 0
-414 -424 0
415 425 0
-415 -425 0
417 427 0
-417 -427 0
418 428 0
-418 -428 0
418 429 0
-418 -429 0
418 328 0
-418 -328 0
-428 -400 -430 0
428 400 -430 0
428 -400 430 0
-428 400 430 0
-428 -402 -431 0
428 402 -431 0
428 -402 431 0
-428 402 431 0
-428 -403 -432 0
428 403 -432 0
428 -403 432 0
-428 403 432 0
-428 -404 -433 0
428 404 -433 0
428 -404 433 0
-428 404 433 0
-281 -429 -434 0
281 434 0
429 434 0
-428 -405 -435 0
428 405 -435 0
428 -405 435 0
-428 405 435 0
-429 -285 -436 0
429 436 0
285 436 0
-428 -406 -437 0
428 406 -437 0
428 -406 437 0
-428 406 437 0
-429 -289 -438 0
429 438 0
289 438 0
-428 -407 -439 0
428 407 -439 0
428 -407 439 0
-428 407 439 0
-429 -293 -440 0
429 440 0
293 440 0
-428 -408 -441 0
428 408 -441 0
428 -408 441 0
-428 408 441 0
-429 -297 -442 0
429 442 0
297 442 0
-428 -409 -443 0
428 409 -443 0
428 -409 443 0
-428 409 443 0
-429 -301 -444 0
429 444 0
301 444 0
-429 -305 -445 0
429 445 0
305 445 0
-429 -309 -446 0
429 446 0
309 446 0
-429 -313 -447 0
429 447 0
313 447 0
-430 -419 -448 0
430 448 0
419 448 0
-431 -420 -449 0
431 449 0
420 449 0
-432 -421 -450 0
432 450 0
421 450 0
-433 -422 -451 0
433 451 0
422 451 0
-435 -423 -452 0
435 452 0
423 452 0
-437 -424 -453 0
437 453 0
424 453 0
-439 -425 -454 0
439 454 0
425 454 0
-441 -426 -455 0
441 455 0
426 455 0
-443 -427 -456 0
443 456 0
427 456 0
-448 -449 -450 -451 -452 -453 -454 -455 -456 457 0
448 -457 0
449 -457 0
450 -457 0
451 -457 0
452 -457 0
453 -457 0
454 -457 0
455 -457 0
456 -457 0
457 458 0
-457 -458 0
457 329 0
-457 -329 0
-283 -458 -459 0
283 459 0
458 459 0
-458 -287 -460 0
458 460 0
287 460 0
-458 -291 -461 0
458 461 0
291 461 0
-458 -295 -462 0
458 462 0
295 462 0
-458 -299 -463 0
458 463 0
299 463 0
-458 -303 -464 0
458 464 0
303 464 0
-458 -307 -465 0
458 465 0
307 465 0
-458 -311 -466 0
458 466 0
311 466 0
-458 -314 -467 0
458 467 0
314 467 0
-280 -388 -434 -459 -468 0
280 468 0
388 468 0
434 468 0
459 468 0
-390 -436 -460 -284 -469 0
390 469 0
436 469 0
460 469 0
284 469 0
-392 -438 -461 -288 -470 0
392 470 0
438 470 0
461 470 0
288 470 0
-394 -440 -462 -292 -471 0
394 471 0
440 471 0
462 471 0
292 471 0
-395 -442 -463 -296 -472 0
395 472 0
442 472 0
463 472 0
296 472 0
-396 -444 -464 -300 -473 0
396 473 0
444 473 0
464 473 0
300 473 0
-397 -445 -465 -304 -474 0
397 474 0
445 474 0
465 474 0
304 474 0
-398 -446 -466 -308 -475 0
398 475 0
446 475 0
466 475 0
308 475 0
-399 -447 -467 -312 -476 0
399 476 0
447 476 0
467 476 0
312 476 0
468 477 0
-468 -477 0
-469 -470 -471 -472 -473 -474 -475 -476 478 0
469 -478 0
470 -478 0
471 -478 0
472 -478 0
473 -478 0
474 -478 0
475 -478 0
476 -478 0
471 479 0
-471 -479 0
473 480 0
-473 -480 0
474 481 0
-474 -481 0
475 482 0
-475 -482 0
477 478 330 0
-477 -330 0
-478 -330 0
-470 -479 -483 0
470 483 0
479 483 0
-470 -471 -480 -472 -484 0
470 484 0
471 484 0
480 484 0
472 484 0
-472 -471 -481 -485 0
472 485 0
471 485 0
481 485 0
-470 -471 -474 -482 -486 0
470 486 0
471 486 0
474 486 0
482 486 0
-469 -470 -483 -472 -331 0
469 331 0
470 331 0
483 331 0
472 331 0
-469 -470 -484 -485 -332 0
469 332 0
470 332 0
484 332 0
485 332 0
-469 -483 -484 -486 -333 0
469 333 0
483 333 0
484 333 0
486 333 0
317 487 0
-317 -487 0
318 488 0
-318 -488 0
416 489 0
-416 -489 0
-416 -487 491 0
416 -491 0
487 -491 0
-489 -487 492 0
489 -492 0
487 -492 0
-315 -317 493 0
315 -493 0
317 -493 0
-316 -317 494 0
316 -494 0
317 -494 0
-491 -488 500 0
491 -500 0
488 -500 0
-492 -318 498 0
492 -498 0
318 -498 0
-493 -488 496 0
493 -496 0
488 -496 0
-494 -318 495 0
494 -495 0
318 -495 0
495 496 -497 0
-495 497 0
-496 497 0
497 498 -499 0
-497 499 0
-498 499 0
500 499 -490 0
-500 490 0
-499 490 0
319 501 0
-319 -501 0
320 502 0
-320 -502 0
426 503 0
-426 -503 0
-426 -501 505 0
426 -505 0
501 -505 0
-503 -501 506 0
503 -506 0
501 -506 0
-315 -319 507 0
315 -507 0
319 -507 0
-316 -319 508 0
316 -508 0
319 -508 0
-505 -502 514 0
505 -514 0
502 -514 0
-506 -320 512 0
506 -512 0
320 -512 0
-507 -502 510 0
507 -510 0
502 -510 0
-508 -320 509 0
508 -509 0
320 -509 0
509 510 -511 0
-509 511 0
-510 511 0
511 512 -513 0
-511 513 0
-512 513 0
514 513 -504 0
-514 504 0
-513 504 0
321 515 0
-321 -515 0
322 516 0
-322 -516 0
281 517 0
-281 -517 0
-281 -515 519 0
281 -519 0
515 -519 0
-517 -515 520 0
517 -520 0
515 -520 0
-315 -321 521 0
315 -521 0
321 -521 0
-316 -321 522 0
316 -522 0
321 -522 0
-519 -516 528 0
519 -528 0
516 -528 0
-520 -322 526 0
520 -526 0
322 -526 0
-521 -516 524 0
521 -524 0
516 -524 0
-522 -322 523 0
522 -523 0
322 -523 0
523 524 -525 0
-523 525 0
-524 525 0
525 526 -527 0
-525 527 0
-526 527 0
528 527 -518 0
-528 518 0
-527 518 0
323 529 0
-323 -529 0
324 530 0
-324 -530 0
280 531 0
-280 -531 0
-280 -529 533 0
280 -533 0
529 -533 0
-531 -529 534 0
531 -534 0
529 -534 0
-315 -323 535 0
315 -535 0
323 -535 0
-316 -323 536 0
316 -536 0
323 -536 0
-533 -530 542 0
533 -542 0
530 -542 0
-534 -324 540 0
534 -540 0
324 -540 0
-535 -530 538 0
535 -538 0
530 -538 0
-536 -324 537 0
536 -537 0
324 -537 0
537 538 -539 0
-537 539 0
-538 539 0
539 540 -541 0
-539 541 0
-540 541 0
542 541 -532 0
-542 532 0
-541 532 0
325 543 0
-325 -543 0
326 544 0
-326 -544 0
546 545 0
-546 -545 0
-546 -543 547 0
546 -547 0
543 -547 0
-545 -543 548 0
545 -548 0
543 -548 0
-315 -325 549 0
315 -549 0
325 -549 0
-316 -325 550 0
316 -550 0
325 -550 0
-547 -544 556 0
547 -556 0
544 -556 0
-548 -326 554 0
548 -554 0
326 -554 0
-549 -544 552 0
549 -552 0
544 -552 0
-550 -326 551 0
550 -551 0
326 -551 0
551 552 -553 0
-551 553 0
-552 553 0
553 554 -555 0
-553 555 0
-554 555 0
556 555 -279 0
-556 279 0
-555 279 0
-490 -504 -518 -532 -546 0
490 546 0
504 546 0
518 546 0
532 546 0
37 0
-38 0
c Force PIs of 2 ckts to be the same:
1 -279 0
-1 279 0
2 -280 0
-2 280 0
3 -281 0
-3 281 0
4 -282 0
-4 282 0
5 -283 0
-5 283 0
6 -284 0
-6 284 0
7 -285 0
-7 285 0
8 -286 0
-8 286 0
9 -287 0
-9 287 0
10 -288 0
-10 288 0
11 -289 0
-11 289 0
12 -290 0
-12 290 0
13 -291 0
-13 291 0
14 -292 0
-14 292 0
15 -293 0
-15 293 0
16 -294 0
-16 294 0
17 -295 0
-17 295 0
18 -296 0
-18 296 0
19 -297 0
-19 297 0
20 -298 0
-20 298 0
21 -299 0
-21 299 0
22 -300 0
-22 300 0
23 -301 0
-23 301 0
24 -302 0
-24 302 0
25 -303 0
-25 303 0
26 -304 0
-26 304 0
27 -305 0
-27 305 0
28 -306 0
-28 306 0
29 -307 0
-29 307 0
30 -308 0
-30 308 0
31 -309 0
-31 309 0
32 -310 0
-32 310 0
33 -311 0
-33 311 0
34 -312 0
-34 312 0
35 -313 0
-35 313 0
36 -314 0
-36 314 0
37 -315 0
-37 315 0
38 -316 0
-38 316 0
c XOR outputs of 2 ckts:
-49 -327 -557 0
49 327 -557 0
49 -327 557 0
-49 327 557 0
-50 -328 -558 0
50 328 -558 0
50 -328 558 0
-50 328 558 0
-51 -329 -559 0
51 329 -559 0
51 -329 559 0
-51 329 559 0
-52 -330 -560 0
52 330 -560 0
52 -330 560 0
-52 330 560 0
-53 -331 -561 0
53 331 -561 0
53 -331 561 0
-53 331 561 0
-54 -332 -562 0
54 332 -562 0
54 -332 562 0
-54 332 562 0
-55 -333 -563 0
55 333 -563 0
55 -333 563 0
-55 333 563 0
c The last OR gate of the miter:
557 558 559 560 561 562 563 -564 0
-557 564 0
-558 564 0
-559 564 0
-560 564 0
-561 564 0
-562 564 0
-563 564 0
564 0
